clingo version 5.7.2
Reading from ../axioms/dec_clingo.lp ...
Solving...
Answer: 1 (Time: 0.038s)
happens(turnOnHeater(nathan,balloon),0) happens(turnOffHeater(nathan,balloon),8) holdsAt(height(balloon,0),0) holdsAt(heaterOn(balloon),1) holdsAt(height(balloon,1),1) holdsAt(height(balloon,2),2) holdsAt(height(balloon,3),3) holdsAt(height(balloon,4),4) holdsAt(height(balloon,5),5) holdsAt(height(balloon,6),6) holdsAt(height(balloon,7),7) holdsAt(height(balloon,8),8) holdsAt(heaterOn(balloon),2) holdsAt(heaterOn(balloon),3) holdsAt(heaterOn(balloon),4) holdsAt(heaterOn(balloon),5) holdsAt(heaterOn(balloon),6) holdsAt(heaterOn(balloon),7) holdsAt(heaterOn(balloon),8) holdsAt(height(balloon,-4),20) holdsAt(height(balloon,-3),19) holdsAt(height(balloon,-2),18) holdsAt(height(balloon,-1),17) holdsAt(height(balloon,0),16) holdsAt(height(balloon,1),15) holdsAt(height(balloon,2),14) holdsAt(height(balloon,3),13) holdsAt(height(balloon,4),12) holdsAt(height(balloon,5),11) holdsAt(height(balloon,6),10) holdsAt(height(balloon,7),9)
SATISFIABLE

Models       : 1
Calls        : 1
Time         : 0.039s (Solving: 0.00s 1st Model: 0.00s Unsat: 0.00s)
CPU Time     : 0.026s
